 200 32 
 79 96 97 72 66 3 100 34 84 80 97 12 
 79 74 46 86 23 22 43 49 76 29 82 39 
 25 71 29 88 69 46 43 94 
 11 
 3 4 7 11 14 16 18 22 26 28 30 
 8 
 8 9 13 16 25 27 29 32 
 30 
 1 2 3 4 5 6 7 8 9 10 11 12 
 14 16 17 18 19 20 21 22 23 24 25 26 
 27 28 29 30 31 32 
 30 
 1 2 3 4 5 6 7 8 9 10 11 12 
 13 14 15 16 18 19 20 21 22 23 24 25 
 26 27 28 29 31 32 
 31 
 1 2 3 4 5 6 7 8 9 10 11 13 
 14 15 16 17 18 19 20 21 22 23 24 25 
 26 27 28 29 30 31 32 
 8 
 3 8 10 12 13 14 24 26 
 11 
 4 9 13 15 16 25 26 27 29 31 32 
 12 
 6 10 11 15 16 21 22 26 27 30 31 32 
 3 
 5 13 25 
 7 
 5 6 9 24 30 31 32 
 9 
 4 7 17 19 24 26 28 30 31 
 9 
 4 5 16 17 19 20 23 25 27 
 14 
 3 6 9 11 13 15 17 19 21 22 24 27 
 28 30 
 24 
 1 2 3 4 6 7 8 9 13 15 16 17 
 19 20 21 22 24 25 26 27 28 29 31 32 
 31 
 1 2 3 4 5 6 7 8 9 10 11 12 
 13 15 16 17 18 19 20 21 22 23 24 25 
 26 27 28 29 30 31 32 
 29 
 1 2 3 4 5 7 9 10 11 12 13 14 
 15 16 17 18 19 20 21 22 23 24 25 27 
 28 29 30 31 32 
 28 
 1 2 4 5 6 7 8 10 11 13 14 15 
 16 17 18 19 20 21 22 23 24 25 26 28 
 29 30 31 32 
 13 
 4 9 14 15 17 18 21 24 26 28 29 31 
 32 
 22 
 3 4 6 7 9 10 11 12 14 15 16 17 
 18 19 20 21 25 26 28 30 31 32 
 9 
 2 4 5 6 11 15 24 28 32 
 16 
 1 3 4 6 8 10 12 14 17 19 20 22 
 26 27 31 32 
 14 
 2 3 5 10 15 17 18 19 20 22 25 29 
 31 32 
 30 
 1 2 3 4 5 6 7 8 9 10 11 12 
 13 14 15 16 17 19 20 21 22 23 24 25 
 26 27 28 29 30 31 
 6 
 1 10 14 15 17 31 
 32 
 1 2 3 4 5 6 7 8 9 10 11 12 
 13 14 15 16 17 18 19 20 21 22 23 24 
 25 26 27 28 29 30 31 32 
 2 
 2 28 
 8 
 2 4 10 13 14 20 23 24 
 16 
 1 2 5 6 8 9 14 17 18 19 20 21 
 26 27 28 30 
 19 
 2 3 4 5 6 7 9 10 11 18 19 21 
 22 23 25 27 28 30 31 
 31 
 1 2 3 4 5 6 7 8 9 10 11 12 
 13 14 15 16 18 19 20 21 22 23 24 25 
 26 27 28 29 30 31 32 
 29 
 1 2 3 4 6 7 8 9 11 12 13 14 
 15 16 17 18 19 20 21 22 24 25 26 27 
 28 29 30 31 32 
 15 
 4 7 10 11 12 13 16 21 22 24 27 28 
 29 30 31 
 22 
 1 2 4 6 7 9 10 12 13 15 16 18 
 20 21 22 23 24 25 26 27 29 30 
 4 
 26 27 28 29 
 27 
 1 2 4 5 6 7 8 9 11 12 13 14 
 15 16 17 18 20 21 22 23 24 25 27 28 
 29 31 32 
 12 
 4 5 8 9 10 11 14 18 19 23 27 28 
 21 
 1 2 4 5 6 7 8 10 11 12 14 15 
 16 22 24 25 27 28 29 31 32 
 29 
 1 2 3 4 5 7 8 9 10 11 12 13 
 14 15 17 18 19 20 21 23 24 25 26 27 
 28 29 30 31 32 
 30 
 1 2 3 4 5 6 7 8 9 10 11 13 
 14 15 16 17 18 19 20 21 22 23 25 26 
 27 28 29 30 31 32 
 28 
 2 3 4 5 6 7 8 9 10 11 12 13 
 14 15 16 17 18 19 20 21 23 25 26 27 
 28 29 30 32 
 17 
 2 5 6 7 10 11 13 15 16 18 19 22 
 23 25 26 27 28 
 18 
 1 2 3 6 7 9 10 15 19 21 22 23 
 24 25 27 28 29 30 
 19 
 1 2 3 5 8 10 11 14 15 20 21 22 
 23 24 25 27 28 30 32 
 13 
 2 3 7 15 16 17 18 19 21 23 25 29 
 30 
 10 
 1 2 6 8 9 13 14 15 19 25 
 30 
 1 2 3 4 5 6 7 8 9 10 11 12 
 13 14 15 16 17 18 20 21 22 24 25 26 
 27 28 29 30 31 32 
 3 
 13 18 29 
 9 
 1 5 6 8 9 14 15 18 30 
 22 
 1 2 4 6 7 8 11 12 14 16 17 19 
 20 21 22 24 25 27 28 30 31 32 
 29 
 1 2 3 4 5 6 7 8 9 10 11 12 
 14 15 16 17 18 19 20 21 22 23 24 25 
 27 28 29 30 32 
 24 
 1 3 5 6 7 9 10 11 12 13 14 15 
 16 17 18 19 20 21 22 26 27 29 30 31 
 11 
 2 11 14 15 17 18 20 21 22 24 31 
 16 
 1 9 11 12 18 19 21 23 24 25 26 27 
 28 29 30 32 
 20 
 1 2 3 5 6 7 8 9 10 14 15 16 
 18 20 21 22 26 29 30 31 
 23 
 1 2 3 5 6 7 8 10 12 13 14 15 
 16 17 18 19 20 22 23 25 29 30 31 
 6 
 1 8 12 16 26 29 
 27 
 1 2 3 4 5 6 7 10 11 12 13 14 
 15 17 18 19 20 21 23 24 25 26 27 28 
 29 31 32 
 15 
 1 3 5 7 9 13 14 15 18 23 25 26 
 27 28 29 
 21 
 2 3 4 5 10 11 12 13 15 16 17 19 
 20 22 23 24 25 26 27 31 32 
 2 
 6 9 
 20 
 1 4 7 8 9 12 13 15 18 19 21 22 
 23 25 26 27 28 29 31 32 
 27 
 1 2 3 4 5 6 7 8 9 10 11 13 
 14 15 16 17 18 19 21 22 23 27 28 29 
 30 31 32 
 13 
 2 8 9 11 16 17 18 22 23 25 26 27 
 29 
 14 
 1 2 4 5 8 11 12 15 16 18 19 20 
 21 30 
 31 
 1 2 3 4 5 6 7 8 9 10 11 12 
 13 14 15 16 18 19 20 21 22 23 24 25 
 26 27 28 29 30 31 32 
 31 
 1 2 3 4 5 6 7 8 9 10 11 12 
 13 14 15 16 17 18 19 20 21 22 23 25 
 26 27 28 29 30 31 32 
 30 
 1 2 3 4 5 6 7 8 9 11 12 13 
 14 15 16 18 19 20 21 22 23 24 25 26 
 27 28 29 30 31 32 
 27 
 1 2 3 4 5 7 9 10 12 13 14 15 
 16 17 18 19 20 21 22 23 24 26 27 28 
 29 30 31 
 22 
 1 3 4 7 8 9 10 11 13 14 15 16 
 17 19 21 25 27 28 29 30 31 32 
 32 
 1 2 3 4 5 6 7 8 9 10 11 12 
 13 14 15 16 17 18 19 20 21 22 23 24 
 25 26 27 28 29 30 31 32 
 5 
 4 9 12 27 29 
 9 
 13 16 17 19 23 28 30 31 32 
 31 
 1 2 3 4 5 6 7 8 9 10 11 12 
 13 14 15 16 17 18 19 20 21 22 23 25 
 26 27 28 29 30 31 32 
 32 
 1 2 3 4 5 6 7 8 9 10 11 12 
 13 14 15 16 17 18 19 20 21 22 23 24 
 25 26 27 28 29 30 31 32 
 4 
 17 20 22 32 
 4 
 1 9 16 20 
 16 
 1 2 4 5 13 14 20 21 22 23 24 25 
 26 27 28 31 
 24 
 3 4 7 9 10 11 12 13 14 15 16 17 
 18 19 20 23 24 26 27 28 29 30 31 32 
 15 
 4 5 7 10 13 14 15 17 19 21 25 27 
 28 30 32 
 27 
 1 2 3 5 6 7 8 9 10 11 12 13 
 14 17 19 20 21 22 23 24 25 26 27 29 
 30 31 32 
 5 
 3 5 28 30 31 
 22 
 1 3 5 6 9 11 12 13 15 16 17 19 
 20 21 22 23 27 28 29 30 31 32 
 21 
 2 4 5 6 7 8 9 10 11 12 13 14 
 16 17 20 25 27 28 30 31 32 
 2 
 23 27 
 24 
 1 2 3 4 5 6 7 11 12 13 14 15 
 16 17 20 21 22 23 24 25 27 28 29 32 
 18 
 1 2 3 5 6 8 10 11 17 18 21 23 
 24 25 27 28 30 32 
 7 
 2 4 11 15 20 25 26 
 23 
 1 4 5 7 8 10 12 13 14 15 17 18 
 19 20 21 23 24 26 28 29 30 31 32 
 7 
 1 3 8 14 20 26 29 
 9 
 7 8 11 12 14 19 27 28 32 
 4 
 2 12 29 31 
 8 
 1 5 10 17 27 29 31 32 
 26 
 1 2 3 5 6 7 9 11 13 14 15 17 
 19 20 21 22 23 24 25 26 27 28 29 30 
 31 32 
 15 
 1 6 7 8 9 10 11 12 13 14 23 25 
 26 27 29 
 31 
 1 2 3 4 5 6 7 8 9 10 11 12 
 13 14 15 17 18 19 20 21 22 23 24 25 
 26 27 28 29 30 31 32 
 23 
 1 2 3 4 5 6 7 9 10 13 14 15 
 16 17 21 22 23 24 27 28 29 31 32 
 13 
 3 5 7 9 10 11 13 14 15 19 20 28 
 29 
 25 
 1 2 4 5 7 8 10 11 12 14 15 16 
 19 20 21 23 24 25 26 27 28 29 30 31 
 32 
 12 
 2 3 4 6 10 18 19 21 25 28 30 31 
 3 
 12 18 23 
 3 
 3 7 30 
 2 
 18 25 
 10 
 1 3 6 7 8 18 25 26 27 32 
 31 
 1 2 3 4 5 6 7 8 9 10 11 12 
 13 14 15 17 18 19 20 21 22 23 24 25 
 26 27 28 29 30 31 32 
 24 
 1 2 3 4 5 6 7 8 9 11 14 15 
 17 18 20 21 23 24 25 27 28 29 30 31 
 22 
 1 2 5 7 10 11 12 13 14 15 16 17 
 19 20 22 24 25 26 27 28 30 32 
 26 
 1 2 3 4 5 6 7 8 10 14 15 16 
 17 18 20 21 22 23 24 25 26 27 28 30 
 31 32 
 32 
 1 2 3 4 5 6 7 8 9 10 11 12 
 13 14 15 16 17 18 19 20 21 22 23 24 
 25 26 27 28 29 30 31 32 
 5 
 5 8 23 24 25 
 28 
 1 2 3 4 5 7 8 9 10 11 14 15 
 16 17 18 19 20 21 22 23 24 25 26 27 
 28 29 30 32 
 22 
 1 2 3 4 5 8 9 10 11 12 13 14 
 17 18 19 21 23 25 26 30 31 32 
 18 
 1 2 3 4 5 6 10 11 13 14 18 20 
 21 22 23 25 26 28 
 9 
 2 4 6 7 8 11 15 19 29 
 8 
 1 5 6 13 15 21 23 31 
 2 
 1 25 
 20 
 1 3 4 6 7 11 12 13 16 18 19 20 
 21 22 23 24 25 26 27 32 
 29 
 1 3 4 5 6 7 8 9 10 11 13 14 
 15 16 17 18 19 20 21 22 23 24 25 26 
 27 28 29 31 32 
 9 
 1 5 7 8 17 20 22 24 31 
 10 
 6 11 12 17 18 19 22 24 27 29 
 27 
 2 4 5 6 7 8 9 10 11 12 13 14 
 16 17 19 21 22 23 24 25 26 27 28 29 
 30 31 32 
 17 
 1 2 5 6 7 10 12 14 18 21 22 24 
 25 27 29 31 32 
 25 
 1 2 3 4 5 6 7 9 10 11 12 13 
 14 16 17 18 19 20 21 22 24 25 27 29 
 32 
 13 
 2 4 7 8 12 13 15 17 21 25 27 28 
 30 
 21 
 2 7 8 9 11 13 14 15 16 17 18 20 
 21 23 24 25 26 27 28 30 31 
 26 
 1 2 3 5 6 7 9 11 12 13 14 15 
 16 17 18 19 20 21 22 23 24 25 26 27 
 30 32 
 15 
 1 3 5 7 10 13 18 20 21 22 23 28 
 29 30 32 
 2 
 21 24 
 16 
 2 3 4 8 10 12 16 17 18 22 24 27 
 28 30 31 32 
 32 
 1 2 3 4 5 6 7 8 9 10 11 12 
 13 14 15 16 17 18 19 20 21 22 23 24 
 25 26 27 28 29 30 31 32 
 15 
 1 2 5 6 8 10 15 17 20 21 22 29 
 30 31 32 
 13 
 1 3 4 8 14 16 18 19 23 24 26 30 
 31 
 7 
 3 6 7 12 18 27 32 
 27 
 2 3 4 5 7 8 10 11 12 13 14 15 
 16 17 18 19 20 21 23 24 25 26 27 28 
 29 30 31 
 20 
 1 4 5 8 9 10 11 13 14 15 19 21 
 22 23 24 25 26 27 28 29 
 2 
 12 27 
 15 
 2 3 4 6 9 10 11 15 16 17 21 22 
 25 29 32 
 19 
 1 2 4 5 6 7 11 15 16 19 21 22 
 23 25 26 27 28 30 32 
 11 
 3 8 11 14 19 20 21 24 25 27 28 
 3 
 14 23 24 
 8 
 1 2 5 16 18 22 28 32 
 21 
 2 3 4 5 6 9 10 11 12 13 15 17 
 19 20 21 25 26 27 29 30 32 
 15 
 2 6 7 9 10 13 15 17 18 21 24 27 
 29 31 32 
 4 
 9 18 28 30 
 23 
 1 2 3 4 5 6 8 9 10 13 14 15 
 16 17 20 22 24 25 27 28 30 31 32 
 22 
 1 2 4 6 7 10 11 12 13 14 15 16 
 17 18 19 21 24 25 26 27 31 32 
 24 
 1 3 5 6 7 8 10 11 12 13 14 15 
 17 18 20 22 23 25 26 27 28 29 30 32 
 9 
 4 5 12 15 21 23 25 29 31 
 2 
 9 23 
 20 
 1 3 4 5 7 9 10 11 13 14 15 16 
 18 20 21 25 27 29 31 32 
 21 
 1 3 4 5 6 8 10 11 13 18 19 20 
 22 23 24 26 27 28 29 31 32 
 11 
 1 2 3 14 20 21 22 27 28 29 30 
 16 
 1 2 4 5 6 7 8 12 13 15 19 22 
 24 26 30 32 
 30 
 1 2 4 5 6 7 8 9 10 11 12 13 
 14 15 16 17 18 19 20 21 23 24 25 26 
 27 28 29 30 31 32 
 32 
 1 2 3 4 5 6 7 8 9 10 11 12 
 13 14 15 16 17 18 19 20 21 22 23 24 
 25 26 27 28 29 30 31 32 
 29 
 1 2 3 4 5 6 7 8 10 11 12 13 
 14 15 16 17 18 19 20 21 22 23 24 26 
 28 29 30 31 32 
 20 
 2 4 5 6 7 10 11 13 15 17 18 19 
 20 21 22 23 24 29 30 32 
 20 
 3 4 5 6 7 9 10 11 12 15 16 17 
 19 23 24 26 28 29 30 31 
 21 
 2 3 5 6 7 9 10 11 12 13 15 18 
 19 20 21 22 23 24 26 27 32 
 6 
 1 4 5 10 22 30 
 23 
 2 3 5 6 7 8 10 11 12 14 15 16 
 18 19 20 21 22 23 25 29 30 31 32 
 9 
 8 9 12 13 15 22 27 28 31 
 20 
 1 2 3 6 8 11 13 15 16 17 19 20 
 21 23 24 25 26 27 28 30 
 6 
 4 7 9 24 29 31 
 30 
 1 2 3 4 5 6 7 8 9 10 11 12 
 13 14 15 17 18 19 20 21 22 23 24 25 
 26 28 29 30 31 32 
 23 
 1 2 4 5 6 7 8 10 12 14 16 17 
 18 19 21 23 25 26 27 28 29 31 32 
 17 
 1 2 3 4 5 7 10 12 13 14 17 18 
 25 26 27 30 32 
 3 
 11 28 32 
 9 
 1 3 4 6 10 12 13 19 25 
 7 
 3 5 6 15 16 22 23 
 17 
 1 2 4 5 7 8 16 17 19 20 22 23 
 24 25 27 28 30 
 7 
 7 14 15 19 20 21 29 
 3 
 1 8 28 
 28 
 1 2 3 4 5 6 7 8 10 11 13 14 
 15 16 17 18 19 21 22 23 24 25 27 28 
 29 30 31 32 
 9 
 7 16 18 21 23 28 30 31 32 
 32 
 1 2 3 4 5 6 7 8 9 10 11 12 
 13 14 15 16 17 18 19 20 21 22 23 24 
 25 26 27 28 29 30 31 32 
 10 
 3 7 8 9 13 22 25 26 30 32 
 28 
 1 2 4 5 6 7 8 9 10 11 12 13 
 14 15 16 18 19 20 21 23 24 25 26 27 
 28 29 30 31 
 12 
 1 2 3 7 9 11 19 20 22 23 25 28 
 30 
 1 2 3 4 5 6 7 8 9 10 11 12 
 13 14 15 16 17 18 19 20 21 22 23 24 
 25 28 29 30 31 32 
 32 
 1 2 3 4 5 6 7 8 9 10 11 12 
 13 14 15 16 17 18 19 20 21 22 23 24 
 25 26 27 28 29 30 31 32 
 26 
 1 2 3 5 6 8 10 11 13 15 17 18 
 19 20 21 22 23 24 25 26 27 28 29 30 
 31 32 
 23 
 1 2 3 5 6 7 9 10 11 13 15 16 
 18 19 20 21 22 25 28 29 30 31 32 
 13 
 4 5 6 7 10 15 18 21 25 26 29 30 
 31 
 22 
 1 2 3 5 6 7 8 11 12 13 14 15 
 17 18 20 22 23 24 25 29 30 32 
 3 
 8 20 23 
 19 
 1 3 4 7 8 10 11 13 16 17 18 20 
 21 22 25 27 29 31 32 
 10 
 2 11 13 17 20 21 23 24 27 32 
 5 
 7 15 20 24 32 
 24 
 1 2 3 4 5 9 10 11 12 13 16 17 
 18 19 20 21 25 26 27 28 29 30 31 32 
 22 
 1 2 3 4 5 6 7 8 9 10 11 13 
 16 17 22 24 25 27 28 29 30 32 
 13 
 1 3 4 6 7 8 10 14 18 20 24 25 
 32 
 17 
 3 4 6 7 11 12 13 17 18 20 21 22 
 23 28 30 31 32 
 12 
 1 6 9 10 15 16 20 21 23 24 29 31 
 17 
 1 2 3 6 7 9 10 12 13 17 18 20 
 21 22 25 29 32 
 26 
 1 2 3 5 6 7 8 9 10 13 14 16 
 17 18 20 21 22 23 24 25 27 28 29 30 
 31 32 
 4 
 15 17 22 24 
 32 
 1 2 3 4 5 6 7 8 9 10 11 12 
 13 14 15 16 17 18 19 20 21 22 23 24 
 25 26 27 28 29 30 31 32 
 4 
 11 15 31 32 
 22 
 1 2 4 5 6 7 8 9 11 14 15 16 
 20 22 24 25 26 27 28 29 30 32 
 32 
 1 2 3 4 5 6 7 8 9 10 11 12 
 13 14 15 16 17 18 19 20 21 22 23 24 
 25 26 27 28 29 30 31 32 
 